NAME : n40w60.001.494.tour
COMMENT : Length = 494
COMMENT : Found by LKH [Keld Helsgaun] Tue May  2 05:18:26 2017
TYPE : TOUR
DIMENSION : 41
TOUR_SECTION
1
16
7
37
17
9
18
5
8
34
11
20
33
2
10
23
19
13
22
26
28
32
14
4
24
27
6
36
31
35
15
29
30
39
40
3
21
38
41
12
25
-1
EOF
